Traveling Salesman Problem/TSP_generados/Aleatorio1621103588_16.tsp
NAME: Aleatorio1621103588_16.tsp
COMMENT: Randomly generated scenario
TYPE: TSP
DIMENSION: 16
EDGE_WEIGHT_TYPE: ATT
NODE_COORD_SECTION
1 7.19 13.52
2 41.77 27.26
3 33.05 23.99
4 30.11 3.75
5 14.76 5.63
6 28.55 1.87
7 46.75 43.53
8 30.47 9.45
9 36.85 31.34
10 19.43 23.23
11 25.45 0.85
12 29.59 39.0
13 6.14 7.22
14 41.6 38.28
15 37.77 13.03
16 7.65 46.57
