Traveling Salesman Problem/TSP_generados/Aleatorio1621103588_16.opt.tour
NAME: Aleatorio1621103588_16.opt.tour
COMMENT: Optimal solution for Aleatorio1621103588_16 (172.53771881238092)
TYPE: TOUR
DIMENSION: 16
TOUR_SECTION
1 13 5 11 6 4 8 15 3 2 9 14 7 12 16 10
-1
EOF
